letting n =  10
letting blocks =  [[2, 4], [2, 7], [2, 10], [3, 2], [3, 7], [3, 9], [4, 2], [4, 8], [4, 10], [5, 2], [5, 3], [5, 5], [5, 6], [5, 8], [6, 4], [6, 7], [6, 10], [7, 6], [8, 6], [8, 7], [8, 9], [8, 10], [9, 10], [10, 7]]
